outputs/case_323.model.txt
general_manager_reviewed = False
underwriting_staff_reviewed = False
claims_staff_reviewed = False
actuarial_staff_reviewed = False
policy_service_staff_reviewed = False
legal_staff_reviewed = False
investment_staff_reviewed = False
risk_management_staff_reviewed = False
act_171_1_violation_internal_handling = False
act_171_1_violation_internal_control = False
act_148_3_internal_control_established = True
internal_handling_established = True
no_misleading_sales_practices = True
risk_reporting_mechanism_established = True
internal_business_procedures_compliant = True
underwriting_signature_valid = True
act_144_actuarial_staff_assigned = True
act_144_board_approval_obtained = True
signing_actuary_board_approved = True
no_unfair_treatment = True
external_review_board_approved = True
act_148_3_internal_handling_established = True
financial_underwriting_mechanism_established = True
underwriting_staff_qualified = True
internal_control_established = True
personal_data_protection_compliant = True
actuarial_staff_hired = True
signing_actuary_assigned = True
internet_only_insurer_restrictions = True
underwriting_evaluation_performed = True
external_review_report_fair = True
act_144_reports_fair_and_true = True
no_insurance_agents = True
external_review_actuary_hired = True
customer_appropriateness_confirmed = True
penalty = False
signing_actuary_report_fair = True
no_prohibited_practices = True
underwriting_documents_retained = True
no_brokers = True
recording_and_review_compliant = True
act_144_external_review_engaged = True
underwriting_procedure_compliance = True
product_sales_review_responsibilities = False